
  32    1
  10

   0   0   4 2 4 5 6 
   3   5   1 3 
   5   7   4 11 10 8 7 
   6  10   4 12 11 8 7 
  10  10   3 12 8 7 
   5   5   4 17 11 10 8 
   5  10   3 18 16 9 
   2   7   4 18 16 15 14 
   8   8   2 23 13 
   7  10   2 18 12 
   7  10   3 18 15 14 
  10   3   3 23 15 14 
   6   8   3 17 15 14 
   5   5   3 24 20 19 
   1   3   2 24 19 
   2   7   3 24 22 21 
   8  10   2 25 19 
   5   9   3 25 23 21 
   7  10   2 22 21 
   8   6   4 31 30 29 27 
   4   6   3 30 27 26 
   3   8   3 31 27 26 
   5  10   3 30 27 26 
   6  10   1 25 
   1   7   2 29 27 
   8   8   2 29 28 
   8  10   1 28 
   4   9   1 32
   3   9   1 32
   5  10   1 32
   4  10   1 32
   0   0   0 
